CMD:
./solvers/bin/cadical --plain --no-reduce -t 1600 ./data/cnfs//beemprdcell2f1/beemprdcell2f1.43.cnf

c --- [ banner ] -------------------------------------------------------------
c 
c CaDiCaL SAT Solver
c Copyright (c) 2016-2024
c A. Biere, M. Fleury, N. Froleyks, K. Fazekas, F. Pollitt, T. Faller
c JKU Linz, University of Freiburg, TU Wien
c 
c Version 2.1.3 5296d3d2a9bf48c154ab2acb5e44625776d821bf
c g++ (Gentoo 12.3.1_p20230526 p2) 12.3.1 20230526 -Wall -Wextra -O3 -DNDEBUG
c Sat Aug 9 07:26:21 PDT 2025 Linux cedar2.int.cedar.computecanada.ca 5.14.0-362.24.2.el9_3.x86_64 x86_64
c 
c --- [ limit ] --------------------------------------------------------------
c 
c setting time limit to 1600 seconds real time (due to '-t 1600')
c 
c --- [ parsing input ] ------------------------------------------------------
c 
c reading DIMACS file from './data/cnfs//beemprdcell2f1/beemprdcell2f1.43.cnf'
c opening file to read './data/cnfs//beemprdcell2f1/beemprdcell2f1.43.cnf'
c found 'p cnf 36586 105974' header
c parsed 105974 clauses in 0.02 seconds process time
c 
c --- [ options ] ------------------------------------------------------------
c 
c   --compact=false                (different from default 'true')
c   --decompose=false              (different from default 'true')
c   --deduplicate=false            (different from default 'true')
c   --elim=false                   (different from default 'true')
c   --probe=false                  (different from default 'true')
c   --reduce=false                 (different from default 'true')
c   --subsume=false                (different from default 'true')
c   --ternary=false                (different from default 'true')
c   --transred=false               (different from default 'true')
c   --vivify=false                 (different from default 'true')
c 
c --- [ solving ] ------------------------------------------------------------
c 
c time measured in process time since initialization
c 
c  seconds  reductions  redundant  irredundant
c         MB    restarts       trail      variables
c          level   conflicts       glue        remaining
c 
c *  0.02 20  0 0   0    0    0  0% 0 97505 19322 53%
c {  0.03 20  0 0   0    0    0  0% 0 97505 19322 53%
c i  0.03 20 66 0   0   87   54 61% 15 97505 19285 53%
c i  0.05 20 39 0   2  400  335 62% 8 97505 19260 53%
c i  0.05 20 39 0   2  402  336 62% 8 97505 19258 53%
c i  0.05 20 38 0   2  414  346 62% 7 97505 19246 53%
c i  0.05 20 37 0   2  422  353 62% 7 97505 18908 52%
c i  0.05 20 37 0   2  426  356 62% 7 97505 18837 51%
c i  0.05 20 36 0   2  441  369 61% 7 97505 18765 51%
c i  0.05 20 34 0   2  469  391 61% 7 97505 18660 51%
c i  0.05 20 34 0   2  491  406 62% 7 97505 18646 51%
c i  0.05 20 34 0   2  496  410 62% 7 97505 18645 51%
c i  0.05 20 34 0   2  521  430 63% 6 97505 18586 51%
c i  0.07 20 33 0   5  835  705 66% 5 97505 18576 51%
c i  0.07 20 33 0   5  841  709 66% 5 97505 18434 50%
c i  0.07 20 32 0   5  850  716 66% 5 97505 18374 50%
c i  0.07 20 32 0   5  851  716 66% 5 97505 18373 50%
c i  0.07 20 32 0   5  852  716 66% 5 97505 18372 50%
c i  0.07 20 32 0   5  858  721 66% 5 97505 18365 50%
c i  0.07 20 32 0   5  869  729 65% 5 97505 18215 50%
c 
c  seconds  reductions  redundant  irredundant
c         MB    restarts       trail      variables
c          level   conflicts       glue        remaining
c 
c i  0.07 20 32 0   5  874  732 65% 5 97505 18007 49%
c }  0.07 20 29 0   5 1001  842 66% 5 97505 18007 49%
c [  0.07 20  0 0   5 1001  842  0% 0 97505 18007 49%
c O  0.08 20 22 0   5 1002  843 84% 10 97505 17844 49%
c i  0.14 21 39 0   5 2030 1737 76% 12 97505 17790 49%
c i  0.15 21 38 0   6 2150 1841 76% 12 97505 17743 48%
c i  0.15 21 38 0   6 2154 1844 76% 11 97505 17733 48%
c i  0.15 21 38 0   6 2157 1845 76% 11 97505 17701 48%
c i  0.18 21 27 0   6 2956 2557 69% 8 97505 17622 48%
c ]  0.18 21 27 0   6 3001 2598 69% 8 97505 17622 48%
c {  0.18 21 29 0   6 3001 2598 66% 5 97505 17622 48%
c F  0.18 21 29 0   6 3003 2600 66% 5 97505 17622 48%
c i  0.18 21 28 0   6 3043 2625 65% 5 97505 17612 48%
c i  0.19 21 27 0   6 3118 2673 65% 5 97505 17531 48%
c i  0.19 21 27 0   6 3136 2684 65% 5 97505 17515 48%
c i  0.19 21 27 0   6 3138 2685 65% 5 97505 17438 48%
c i  0.19 21 27 0   6 3139 2685 65% 5 97505 17427 48%
c i  0.19 21 26 0   6 3155 2698 65% 5 97505 17142 47%
c }  0.19 21 26 0   6 3158 2699 65% 5 97505 15876 43%
c 0  0.19 21 26 0   6 3158 2699 65% 5 97505 15876 43%
c 
c --- [ result ] -------------------------------------------------------------
c 
s UNSATISFIABLE
c 
c --- [ run-time profiling ] -------------------------------------------------
c 
c process time taken by individual solving procedures
c (percentage relative to process time for solving)
c 
c         0.17   99.94% search
c         0.11   63.53% stable
c         0.05   30.94% unstable
c         0.02   10.65% parse
c         0.01    5.45% lucky
c         0.00    0.00% simplify
c   =================================
c         0.17   90.14% solve
c 
c last line shows process time for solving
c (percentage relative to total process time)
c 
c --- [ statistics ] ---------------------------------------------------------
c 
c chronological:              1121        35.50 %  of conflicts
c conflicts:                  3158     18745.40    per second
c decisions:                  5609     33294.16    per second
c fixed:                     20710        56.61 %  of all variables
c learned:                    2981        94.40 %  per conflict
c learned_lits:              82346       100.00 %  learned literals
c minimized:                     0         0.00 %  learned literals
c shrunken:                   4483         5.44 %  learned literals
c minishrunken:               9230        11.21 %  learned literals
c otfs:                         59         1.87 %  of conflict
c propagations:            2432886        14.44 M  per second
c rephased:                      2      1579.00    interval
c restarts:                      6       526.33    interval
c stabilizing:                   1        63.33 %  of conflicts
c subsumed:                    251         0.25 %  of all clauses
c strengthened:                 58         0.06 %  of all clauses
c 
c seconds are measured in process time for solving
c 
c --- [ resources ] ----------------------------------------------------------
c 
c total process time since initialization:         0.19    seconds
c total real time since initialization:            0.19    seconds
c maximum resident set size of process:           30.76    MB
c 
c --- [ shutting down ] ------------------------------------------------------
c 
c exit 20
